\* Problème : Assemblage de voiture *\

Maximize
    MargeTot: + 10000 nL + 9000 nS

Subject to
    TempsMaxTravail: + 0.06 nL + 0.05 nS  <= 60
    EspaceParkingMax: + 10 nL + 20 nS <= 15000
    MaxProductionL: + nL <= 800

nL>=0
nS>=0

End